# Objective value = 3.0111853675425141e+02
x[0] 0
x[1] 0
x[2] 1
x[3] 1
x[4] 1
x[5] 1
x[6] 0
x[7] 0
x[8] 0
x[9] 0
x[10] 1
x[11] 1
x[12] 0
x[13] 1
x[14] 0
x[15] 1
x[16] 0
x[17] 1
x[18] 0
x[19] 0
x[20] 0
x[21] 1
x[22] 0
x[23] 1
x[24] 0
x[25] 1
x[26] 0
x[27] 1
x[28] 1
x[29] 1
x[30] 1
x[31] 1
x[32] 1
x[33] 0
x[34] 1
x[35] 1
x[36] 0
x[37] 0
x[38] 0
x[39] 1
x[40] 1
x[41] 0
x[42] 1
x[43] 0
x[44] 0
x[45] 0
x[46] 1
x[47] 1
x[48] 0
x[49] 0
x[50] 0
x[51] 0
x[52] 1
x[53] 1
x[54] 0
x[55] 1
x[56] 0
x[57] 1
x[58] 0
x[59] 1
x[60] 0
x[61] 1
x[62] 1
x[63] 1
x[64] 0
x[65] 0
x[66] 0
x[67] 1
x[68] 1
x[69] 1
x[70] 0
x[71] 0
x[72] 1
x[73] 1
x[74] 1
x[75] 0
x[76] 1
x[77] 0
x[78] 0
x[79] 0
x[80] 1
x[81] 1
x[82] 1
x[83] 0
x[84] 1
x[85] 1
x[86] 0
x[87] 1
x[88] 1
x[89] 0
x[90] 1
x[91] 0
x[92] 0
x[93] 1
x[94] 0
x[95] 0
x[96] 1
x[97] 0
x[98] 1
x[99] 0
x[100] 1
x[101] 0
x[102] 0
x[103] 1
x[104] 0
x[105] 1
x[106] 0
x[107] 1
x[108] 0
x[109] 0
x[110] 0
x[111] 0
x[112] 0
x[113] 1
x[114] 1
x[115] 1
x[116] 0
x[117] 0
x[118] 1
x[119] 0
x[120] 0
x[121] 0
x[122] 1
x[123] 1
x[124] 1
x[125] 1
x[126] 0
x[127] 0
x[128] 0
x[129] 1
x[130] 1
x[131] 1
x[132] 0
x[133] 1
x[134] 1
x[135] 0
x[136] 0
x[137] 1
x[138] 1
x[139] 1
x[140] 1
x[141] 1
x[142] 0
x[143] 0
x[144] 1
x[145] 1
x[146] 1
x[147] 1
x[148] 0
x[149] 0
x[150] 0
x[151] 0
x[152] 1
x[153] 1
x[154] 1
x[155] 1
x[156] 0
x[157] 1
x[158] 1
x[159] 1
x[160] 1
x[161] 1
x[162] 0
x[163] 0
x[164] 1
x[165] 1
x[166] 0
x[167] 1
x[168] 0
x[169] 0
x[170] 1
x[171] 1
x[172] 0
x[173] 1
x[174] 1
x[175] 1
x[176] 1
x[177] 1
x[178] 1
x[179] 1
x[180] 0
x[181] 1
x[182] 0
x[183] 1
x[184] 0
x[185] 1
x[186] 0
x[187] 0
x[188] 0
x[189] 0
x[190] 1
x[191] 1
x[192] 0
x[193] 0
x[194] 1
x[195] 0
x[196] 1
x[197] 1
x[198] 0
x[199] 0
x[200] 0
x[201] 1
x[202] 1
x[203] 0
x[204] 0
x[205] 1
x[206] 0
x[207] 0
x[208] 0
x[209] 0
x[210] 1
x[211] 0
x[212] 1
x[213] 1
x[214] 0
x[215] 0
x[216] 1
x[217] 1
x[218] 0
x[219] 0
x[220] 0
x[221] 1
x[222] 1
x[223] 0
x[224] 1
x[225] 1
x[226] 1
x[227] 0
x[228] 0
x[229] 0
x[230] 1
x[231] 1
x[232] 1
x[233] 0
x[234] 1
x[235] 0
x[236] 1
x[237] 1
x[238] 1
x[239] 1
x[240] 0
x[241] 0
x[242] 0
x[243] 1
x[244] 1
x[245] 1
x[246] 1
x[247] 0
x[248] 0
x[249] 0
x[250] 1
x[251] 0
x[252] 0
x[253] 0
x[254] 0
x[255] 0
x[256] 0
x[257] 1
x[258] 0
x[259] 1
x[260] 0
x[261] 1
x[262] 1
x[263] 1
x[264] 0
x[265] 1
x[266] 0
x[267] 0
x[268] 1
x[269] 0
x[270] 0
x[271] 1
x[272] 0
x[273] 1
x[274] 1
x[275] 1
x[276] 0
x[277] 0
x[278] 0
x[279] 1
x[280] 0
x[281] 0
x[282] 1
x[283] 0
x[284] 0
x[285] 0
x[286] 0
x[287] 0
x[288] 0
x[289] 0
x[290] 0
x[291] 1
x[292] 1
x[293] 0
x[294] 0
x[295] 1
x[296] 0
x[297] 0
x[298] 1
x[299] 1
x[300] 0
x[301] 0
x[302] 1
x[303] 0
x[304] 0
x[305] 0
x[306] 0
x[307] 1
x[308] 0
x[309] 1
x[310] 0
x[311] 0
x[312] 1
x[313] 1
x[314] 1
x[315] 1
x[316] 1
x[317] 1
x[318] 0
x[319] 0
x[320] 0
x[321] 0
x[322] 0
x[323] 1
x[324] 0
x[325] 1
x[326] 1
x[327] 0
x[328] 0
x[329] 0
x[330] 1
x[331] 1
x[332] 1
x[333] 0
x[334] 0
x[335] 1
x[336] 0
x[337] 0
x[338] 1
x[339] 1
x[340] 1
x[341] 1
x[342] 1
x[343] 0
x[344] 0
x[345] 0
x[346] 1
x[347] 1
x[348] 0
x[349] 1
x[350] 0
x[351] 0
x[352] 1
x[353] 0
x[354] 1
x[355] 1
x[356] 0
x[357] 0
x[358] 0
x[359] 1
x[360] 0
x[361] 0
x[362] 0
x[363] 1
x[364] 1
x[365] 1
x[366] 0
x[367] 1
x[368] 1
x[369] 1
x[370] 0
x[371] 0
x[372] 1
x[373] 1
x[374] 0
x[375] 1
x[376] 0
x[377] 1
x[378] 1
x[379] 1
x[380] 0
x[381] 1
x[382] 1
x[383] 0
x[384] 1
x[385] 1
x[386] 1
x[387] 1
x[388] 1
x[389] 0
x[390] 0
x[391] 1
x[392] 1
x[393] 0
x[394] 1
x[395] 1
x[396] 1
x[397] 0
x[398] 1
x[399] 0
x[400] 1
x[401] 1
x[402] 0
x[403] 0
x[404] 0
x[405] 1
x[406] 1
x[407] 1
x[408] 1
x[409] 0
x[410] 1
x[411] 1
x[412] 1
x[413] 1
x[414] 1
x[415] 1
x[416] 1
x[417] 0
x[418] 0
x[419] 0
x[420] 1
x[421] 0
x[422] 0
x[423] 0
x[424] 1
x[425] 0
x[426] 1
x[427] 1
x[428] 1
x[429] 0
x[430] 0
x[431] 0
x[432] 0
x[433] 1
x[434] 0
x[435] 0
x[436] 0
x[437] 0
x[438] 0
x[439] 0
x[440] 1
x[441] 1
x[442] 0
x[443] 0
x[444] 0
x[445] 0
x[446] 1
x[447] 0
x[448] 1
x[449] 0
x[450] 1
x[451] 0
x[452] 0
x[453] 0
x[454] 1
x[455] 1
x[456] 0
x[457] 1
x[458] 0
x[459] 1
x[460] 1
x[461] 0
x[462] 0
x[463] 1
x[464] 0
x[465] 0
x[466] 1
x[467] 0
x[468] 0
x[469] 1
x[470] 0
x[471] 1
x[472] 1
x[473] 0
x[474] 1
x[475] 0
x[476] 1
x[477] 1
x[478] 0
x[479] 0
x[480] 1
x[481] 1
x[482] 1
x[483] 1
x[484] 1
x[485] 1
x[486] 0
x[487] 0
x[488] 0
x[489] 1
x[490] 1
x[491] 1
x[492] 0
x[493] 0
x[494] 0
x[495] 1
x[496] 0
x[497] 1
x[498] 1
x[499] 0
x[500] 0
x[501] 0
x[502] 1
x[503] 1
x[504] 0
x[505] 1
x[506] 0
x[507] 0
x[508] 1
x[509] 1
x[510] 0
x[511] 0
x[512] 1
x[513] 0
x[514] 0
x[515] 1
x[516] 1
x[517] 0
x[518] 1
x[519] 0
x[520] 1
x[521] 1
x[522] 0
x[523] 1
x[524] 0
x[525] 1
x[526] 0
x[527] 1
x[528] 1
x[529] 1
x[530] 0
x[531] 1
x[532] 1
x[533] 0
x[534] 0
x[535] 0
x[536] 0
x[537] 1
x[538] 1
x[539] 1
x[540] 0
x[541] 1
x[542] 1
x[543] 1
x[544] 1
x[545] 0
x[546] 1
x[547] 1
x[548] 0
x[549] 0
x[550] 1
x[551] 0
x[552] 1
x[553] 0
x[554] 0
x[555] 0
x[556] 0
x[557] 0
x[558] 6.42287888246227e-07
x[559] 1
x[560] 0
x[561] 0
x[562] 0
x[563] 1
x[564] 1
x[565] 1
x[566] 1
x[567] 0
x[568] 0
x[569] 0
x[570] 1
x[571] 0
x[572] 1
x[573] 1
x[574] 1
x[575] 1
x[576] 1
x[577] 1
x[578] 0
x[579] 1
x[580] 1
x[581] 0
x[582] 0
x[583] 1
x[584] 1
x[585] 0
x[586] 0
x[587] 1
x[588] 0
x[589] 0
x[590] 0
x[591] 0
x[592] 1
x[593] 1
x[594] 1
x[595] 1
x[596] 0
x[597] 1
x[598] 0
x[599] 0
x[600] 0
x[601] 1
x[602] 0
x[603] 1
x[604] 0
x[605] 0
x[606] 0
x[607] 0
x[608] 0
x[609] 1
x[610] 1
x[611] 1
x[612] 1
x[613] 1
x[614] 0
x[615] 0
x[616] 0
x[617] 0
x[618] 1
x[619] 0
x[620] 0
x[621] 0
x[622] 0
x[623] 0
x[624] 1
x[625] 1
x[626] 0
x[627] 1
x[628] 0
x[629] 0
x[630] 0
x[631] 0
x[632] 0
x[633] 1
x[634] 0
x[635] 0
x[636] 0
x[637] 0
x[638] 1
x[639] 1
x[640] 0
x[641] 0
x[642] 1
x[643] 1
x[644] 0
x[645] 1
x[646] 1
x[647] 1
x[648] 0
x[649] 1
x[650] 0
x[651] 1
x[652] 1
x[653] 0
x[654] 1
x[655] 0
x[656] 1
x[657] 0
x[658] 1
x[659] 1
x[660] 0
x[661] 0
x[662] 0
x[663] 1
x[664] 1
x[665] 0
x[666] 0
x[667] 0
x[668] 0
x[669] 0
x[670] 0
x[671] 0
x[672] 1
x[673] 1
x[674] 1
x[675] 1
x[676] 1
x[677] 1
x[678] 0
x[679] 0
x[680] 1
x[681] 1
x[682] 1
x[683] 0
x[684] 1
x[685] 1
x[686] 1
x[687] 0
x[688] 0
x[689] 0
x[690] 0
x[691] 0
x[692] 1
x[693] 1
x[694] 1
x[695] 0
x[696] 0
x[697] 0
x[698] 1
x[699] 0
x[700] 0
x[701] 0
x[702] 1
x[703] 1
x[704] 0
x[705] 1
x[706] 0
x[707] 1
x[708] 1
x[709] 1
x[710] 0
x[711] 1
x[712] 0
x[713] 1
x[714] 1
x[715] 0
x[716] 0
x[717] 0
x[718] 0
x[719] 0
x[720] 0
x[721] 1
x[722] 1
x[723] 0
x[724] 0
x[725] 0
x[726] 0
x[727] 0
x[728] 0
x[729] 0
x[730] 0
x[731] 1
x[732] 1
x[733] 0
x[734] 0
x[735] 1
x[736] 1
x[737] 0
x[738] 0
x[739] 1
x[740] 1
x[741] 0
x[742] 0
x[743] 1
x[744] 1
x[745] 1
x[746] 0
x[747] 0
x[748] 1
x[749] 1
x[750] 0
x[751] 1
x[752] 0
x[753] 0
x[754] 1
x[755] 0
x[756] 0
x[757] 1
x[758] 0
x[759] 0
x[760] 1
x[761] 0
x[762] 1
x[763] 0
x[764] 0
x[765] 1
x[766] 1
x[767] 0
x[768] 0
x[769] 0
x[770] 0
x[771] 0
x[772] 0
x[773] 0
x[774] 1
x[775] 0
x[776] 1
x[777] 0
x[778] 0
x[779] 1
x[780] 1
x[781] 1
x[782] 0
x[783] 1
x[784] 1
x[785] 1
x[786] 1
x[787] 0
x[788] 1
x[789] 0
x[790] 0
x[791] 0
x[792] 1
x[793] 0
x[794] 0
x[795] 1
x[796] 1
x[797] 1
x[798] 1
x[799] 1
x[800] 0
x[801] 0
x[802] 1
x[803] 1
x[804] 0
x[805] 1
x[806] 1
x[807] 0
x[808] 1
x[809] 0
x[810] 1
x[811] 0
x[812] 1
x[813] 0
x[814] 1
x[815] 0
x[816] 0
x[817] 0
x[818] 0
x[819] 1
x[820] 0
x[821] 1
x[822] 1
x[823] 0
x[824] 1
x[825] 0
x[826] 0
x[827] 0
x[828] 0
x[829] 0
x[830] 1
x[831] 1
x[832] 1
x[833] 1
x[834] 1
x[835] 1
x[836] 1
x[837] 0
x[838] 1
x[839] 0
x[840] 1
x[841] 1
x[842] 0
x[843] 1
x[844] 0
x[845] 0
x[846] 0
x[847] 1
x[848] 0
x[849] 0
x[850] 0
x[851] 0
x[852] 0
x[853] 1
x[854] 0
x[855] 1
x[856] 1
x[857] 0
x[858] 0
x[859] 0
x[860] 1
x[861] 0
x[862] 0
x[863] 0
x[864] 1
x[865] 0
x[866] 0
x[867] 0
x[868] 1
x[869] 0
x[870] 1
x[871] 0
x[872] 1
x[873] 0
x[874] 0
x[875] 1
x[876] 0
x[877] 0
x[878] 0
x[879] 0
x[880] 0
x[881] 0
x[882] 0
x[883] 1
x[884] 1
x[885] 0
x[886] 0
x[887] 0
x[888] 1
x[889] 0
x[890] 1
x[891] 1
x[892] 1
x[893] 0
x[894] 0
x[895] 1
x[896] 1
x[897] 1
x[898] 0
x[899] 0
x[900] 1
x[901] 1
x[902] 0
x[903] 1
x[904] 1
x[905] 0
x[906] 1
x[907] 0
x[908] 1
x[909] 1
x[910] 0
x[911] 1
x[912] 0
x[913] 0
x[914] 0
x[915] 1
x[916] 1
x[917] 1
x[918] 1
x[919] 1
x[920] 0
x[921] 0
x[922] 1
x[923] 0
x[924] 1
x[925] 1
x[926] 1
x[927] 1
x[928] 1
x[929] 1
x[930] 0
x[931] 1
x[932] 0
x[933] 1
x[934] 0
x[935] 1
x[936] 0
x[937] 0
x[938] 0
x[939] 1
x[940] 1
x[941] 0
x[942] 1
x[943] 0
x[944] 0
x[945] 0
x[946] 0
x[947] 1
x[948] 0
x[949] 1
x[950] 0
x[951] 0
x[952] 1
x[953] 0
x[954] 0
x[955] 1
x[956] 0
x[957] 0
x[958] 1
x[959] 0
x[960] 0
x[961] 0
x[962] 0
x[963] 1
x[964] 1
x[965] 0
x[966] 0
x[967] 1
x[968] 1
x[969] 0
x[970] 1
x[971] 1
x[972] 0
x[973] 1
x[974] 1
x[975] 0
x[976] 0
x[977] 0
x[978] 1
x[979] 1
x[980] 0
x[981] 0
x[982] 0
x[983] 1
x[984] 1
x[985] 0
x[986] 1
x[987] 1
x[988] 0
x[989] 0
x[990] 1
x[991] 1
x[992] 0
x[993] 1
x[994] 0
x[995] 0
x[996] 0
x[997] 1
x[998] 1
x[999] 0
